c bitvector 0: 1 2 3 4 5 6 7 8 9 10
c bitvector 1: 11 12 13 14 15 16 17 18 19 20
c bitvector 2: 21 22 23 24 25 26 27 28 29 30
c bitvector 3: 31 32 33 34 35 36 37 38 39 40
c bitvector 4: 41 42 43 44 45 46 47 48 49 50
c bitvector 5: 84 85 86 87 88 89 90 91 92 93
c bitvector 6: 94 95 96 97 98 99 100 101 102 103
c bitvector 7: 104 105 106 107 108 109 110 111 112 113
c bitvector 8: 114 115 116 117 118 119 120 121 122 123
c bitvector 9: 124 125 126 127 128 129 130 131 132 133
c bitvector 10:
c bitvector 11:
c bitvector 12:
c bitvector 13:
c bitvector 14:
c bitvector 15:
p cnf 266 807
-1 0
2 0
-3 0
4 0
-5 0
-6 0
-7 0
-8 0
-9 0
-10 0
-11 0
-12 0
-13 0
-14 0
-15 0
-16 0
-17 0
-18 0
-19 0
-20 0
-51 -21 11 0
-51 21 -11 0
51 21 11 0
51 -21 -11 0
-61 51 0
-52 -22 12 0
-52 22 -12 0
52 22 12 0
52 -22 -12 0
-61 52 0
-53 -23 13 0
-53 23 -13 0
53 23 13 0
53 -23 -13 0
-61 53 0
-54 -24 14 0
-54 24 -14 0
54 24 14 0
54 -24 -14 0
-61 54 0
-55 -25 15 0
-55 25 -15 0
55 25 15 0
55 -25 -15 0
-61 55 0
-56 -26 16 0
-56 26 -16 0
56 26 16 0
56 -26 -16 0
-61 56 0
-57 -27 17 0
-57 27 -17 0
57 27 17 0
57 -27 -17 0
-61 57 0
-58 -28 18 0
-58 28 -18 0
58 28 18 0
58 -28 -18 0
-61 58 0
-59 -29 19 0
-59 29 -19 0
59 29 19 0
59 -29 -19 0
-61 59 0
-60 -30 20 0
-60 30 -20 0
60 30 20 0
60 -30 -20 0
-61 60 0
-51 -52 -53 -54 -55 -56 -57 -58 -59 -60 61 0
-61 0
-62 -31 11 0
-62 31 -11 0
62 31 11 0
62 -31 -11 0
-72 62 0
-63 -32 12 0
-63 32 -12 0
63 32 12 0
63 -32 -12 0
-72 63 0
-64 -33 13 0
-64 33 -13 0
64 33 13 0
64 -33 -13 0
-72 64 0
-65 -34 14 0
-65 34 -14 0
65 34 14 0
65 -34 -14 0
-72 65 0
-66 -35 15 0
-66 35 -15 0
66 35 15 0
66 -35 -15 0
-72 66 0
-67 -36 16 0
-67 36 -16 0
67 36 16 0
67 -36 -16 0
-72 67 0
-68 -37 17 0
-68 37 -17 0
68 37 17 0
68 -37 -17 0
-72 68 0
-69 -38 18 0
-69 38 -18 0
69 38 18 0
69 -38 -18 0
-72 69 0
-70 -39 19 0
-70 39 -19 0
70 39 19 0
70 -39 -19 0
-72 70 0
-71 -40 20 0
-71 40 -20 0
71 40 20 0
71 -40 -20 0
-72 71 0
-62 -63 -64 -65 -66 -67 -68 -69 -70 -71 72 0
-72 0
-73 -21 31 0
-73 21 -31 0
73 21 31 0
73 -21 -31 0
-83 73 0
-74 -22 32 0
-74 22 -32 0
74 22 32 0
74 -22 -32 0
-83 74 0
-75 -23 33 0
-75 23 -33 0
75 23 33 0
75 -23 -33 0
-83 75 0
-76 -24 34 0
-76 24 -34 0
76 24 34 0
76 -24 -34 0
-83 76 0
-77 -25 35 0
-77 25 -35 0
77 25 35 0
77 -25 -35 0
-83 77 0
-78 -26 36 0
-78 26 -36 0
78 26 36 0
78 -26 -36 0
-83 78 0
-79 -27 37 0
-79 27 -37 0
79 27 37 0
79 -27 -37 0
-83 79 0
-80 -28 38 0
-80 28 -38 0
80 28 38 0
80 -28 -38 0
-83 80 0
-81 -29 39 0
-81 29 -39 0
81 29 39 0
81 -29 -39 0
-83 81 0
-82 -30 40 0
-82 30 -40 0
82 30 40 0
82 -30 -40 0
-83 82 0
-73 -74 -75 -76 -77 -78 -79 -80 -81 -82 83 0
-83 0
-134 0
-135 -1 1 0
-135 1 -1 0
135 1 1 0
135 -1 -1 0
-145 135 0
-136 -2 2 0
-136 2 -2 0
136 2 2 0
136 -2 -2 0
-145 136 0
-137 -3 3 0
-137 3 -3 0
137 3 3 0
137 -3 -3 0
-145 137 0
-138 -4 4 0
-138 4 -4 0
138 4 4 0
138 -4 -4 0
-145 138 0
-139 -5 5 0
-139 5 -5 0
139 5 5 0
139 -5 -5 0
-145 139 0
-140 -6 6 0
-140 6 -6 0
140 6 6 0
140 -6 -6 0
-145 140 0
-141 -7 7 0
-141 7 -7 0
141 7 7 0
141 -7 -7 0
-145 141 0
-142 -8 8 0
-142 8 -8 0
142 8 8 0
142 -8 -8 0
-145 142 0
-143 -9 9 0
-143 9 -9 0
143 9 9 0
143 -9 -9 0
-145 143 0
-144 -10 10 0
-144 10 -10 0
144 10 10 0
144 -10 -10 0
-145 144 0
-135 -136 -137 -138 -139 -140 -141 -142 -143 -144 145 0
-146 -21 21 0
-146 21 -21 0
146 21 21 0
146 -21 -21 0
-156 146 0
-147 -22 22 0
-147 22 -22 0
147 22 22 0
147 -22 -22 0
-156 147 0
-148 -23 23 0
-148 23 -23 0
148 23 23 0
148 -23 -23 0
-156 148 0
-149 -24 24 0
-149 24 -24 0
149 24 24 0
149 -24 -24 0
-156 149 0
-150 -25 25 0
-150 25 -25 0
150 25 25 0
150 -25 -25 0
-156 150 0
-151 -26 26 0
-151 26 -26 0
151 26 26 0
151 -26 -26 0
-156 151 0
-152 -27 27 0
-152 27 -27 0
152 27 27 0
152 -27 -27 0
-156 152 0
-153 -28 28 0
-153 28 -28 0
153 28 28 0
153 -28 -28 0
-156 153 0
-154 -29 29 0
-154 29 -29 0
154 29 29 0
154 -29 -29 0
-156 154 0
-155 -30 30 0
-155 30 -30 0
155 30 30 0
155 -30 -30 0
-156 155 0
-146 -147 -148 -149 -150 -151 -152 -153 -154 -155 156 0
-145 134 156 0
-134 10 0
-10 134 145 0
-157 -21 1 0
-157 21 -1 0
157 21 1 0
157 -21 -1 0
-167 157 0
-158 -22 2 0
-158 22 -2 0
158 22 2 0
158 -22 -2 0
-167 158 0
-159 -23 3 0
-159 23 -3 0
159 23 3 0
159 -23 -3 0
-167 159 0
-160 -24 4 0
-160 24 -4 0
160 24 4 0
160 -24 -4 0
-167 160 0
-161 -25 5 0
-161 25 -5 0
161 25 5 0
161 -25 -5 0
-167 161 0
-162 -26 6 0
-162 26 -6 0
162 26 6 0
162 -26 -6 0
-167 162 0
-163 -27 7 0
-163 27 -7 0
163 27 7 0
163 -27 -7 0
-167 163 0
-164 -28 8 0
-164 28 -8 0
164 28 8 0
164 -28 -8 0
-167 164 0
-165 -29 9 0
-165 29 -9 0
165 29 9 0
165 -29 -9 0
-167 165 0
-166 -30 10 0
-166 30 -10 0
166 30 10 0
166 -30 -10 0
-167 166 0
-157 -158 -159 -160 -161 -162 -163 -164 -165 -166 167 0
-168 -31 31 0
-168 31 -31 0
168 31 31 0
168 -31 -31 0
-178 168 0
-169 -32 32 0
-169 32 -32 0
169 32 32 0
169 -32 -32 0
-178 169 0
-170 -33 33 0
-170 33 -33 0
170 33 33 0
170 -33 -33 0
-178 170 0
-171 -34 34 0
-171 34 -34 0
171 34 34 0
171 -34 -34 0
-178 171 0
-172 -35 35 0
-172 35 -35 0
172 35 35 0
172 -35 -35 0
-178 172 0
-173 -36 36 0
-173 36 -36 0
173 36 36 0
173 -36 -36 0
-178 173 0
-174 -37 37 0
-174 37 -37 0
174 37 37 0
174 -37 -37 0
-178 174 0
-175 -38 38 0
-175 38 -38 0
175 38 38 0
175 -38 -38 0
-178 175 0
-176 -39 39 0
-176 39 -39 0
176 39 39 0
176 -39 -39 0
-178 176 0
-177 -40 40 0
-177 40 -40 0
177 40 40 0
177 -40 -40 0
-178 177 0
-168 -169 -170 -171 -172 -173 -174 -175 -176 -177 178 0
-167 134 178 0
-134 11 0
-11 134 167 0
-179 -21 21 0
-179 21 -21 0
179 21 21 0
179 -21 -21 0
-189 179 0
-180 -22 22 0
-180 22 -22 0
180 22 22 0
180 -22 -22 0
-189 180 0
-181 -23 23 0
-181 23 -23 0
181 23 23 0
181 -23 -23 0
-189 181 0
-182 -24 24 0
-182 24 -24 0
182 24 24 0
182 -24 -24 0
-189 182 0
-183 -25 25 0
-183 25 -25 0
183 25 25 0
183 -25 -25 0
-189 183 0
-184 -26 26 0
-184 26 -26 0
184 26 26 0
184 -26 -26 0
-189 184 0
-185 -27 27 0
-185 27 -27 0
185 27 27 0
185 -27 -27 0
-189 185 0
-186 -28 28 0
-186 28 -28 0
186 28 28 0
186 -28 -28 0
-189 186 0
-187 -29 29 0
-187 29 -29 0
187 29 29 0
187 -29 -29 0
-189 187 0
-188 -30 30 0
-188 30 -30 0
188 30 30 0
188 -30 -30 0
-189 188 0
-179 -180 -181 -182 -183 -184 -185 -186 -187 -188 189 0
-190 -31 31 0
-190 31 -31 0
190 31 31 0
190 -31 -31 0
-200 190 0
-191 -32 32 0
-191 32 -32 0
191 32 32 0
191 -32 -32 0
-200 191 0
-192 -33 33 0
-192 33 -33 0
192 33 33 0
192 -33 -33 0
-200 192 0
-193 -34 34 0
-193 34 -34 0
193 34 34 0
193 -34 -34 0
-200 193 0
-194 -35 35 0
-194 35 -35 0
194 35 35 0
194 -35 -35 0
-200 194 0
-195 -36 36 0
-195 36 -36 0
195 36 36 0
195 -36 -36 0
-200 195 0
-196 -37 37 0
-196 37 -37 0
196 37 37 0
196 -37 -37 0
-200 196 0
-197 -38 38 0
-197 38 -38 0
197 38 38 0
197 -38 -38 0
-200 197 0
-198 -39 39 0
-198 39 -39 0
198 39 39 0
198 -39 -39 0
-200 198 0
-199 -40 40 0
-199 40 -40 0
199 40 40 0
199 -40 -40 0
-200 199 0
-190 -191 -192 -193 -194 -195 -196 -197 -198 -199 200 0
-189 134 200 0
-134 12 0
-12 134 189 0
-201 -21 1 0
-201 21 -1 0
201 21 1 0
201 -21 -1 0
-211 201 0
-202 -22 2 0
-202 22 -2 0
202 22 2 0
202 -22 -2 0
-211 202 0
-203 -23 3 0
-203 23 -3 0
203 23 3 0
203 -23 -3 0
-211 203 0
-204 -24 4 0
-204 24 -4 0
204 24 4 0
204 -24 -4 0
-211 204 0
-205 -25 5 0
-205 25 -5 0
205 25 5 0
205 -25 -5 0
-211 205 0
-206 -26 6 0
-206 26 -6 0
206 26 6 0
206 -26 -6 0
-211 206 0
-207 -27 7 0
-207 27 -7 0
207 27 7 0
207 -27 -7 0
-211 207 0
-208 -28 8 0
-208 28 -8 0
208 28 8 0
208 -28 -8 0
-211 208 0
-209 -29 9 0
-209 29 -9 0
209 29 9 0
209 -29 -9 0
-211 209 0
-210 -30 10 0
-210 30 -10 0
210 30 10 0
210 -30 -10 0
-211 210 0
-201 -202 -203 -204 -205 -206 -207 -208 -209 -210 211 0
-212 -31 31 0
-212 31 -31 0
212 31 31 0
212 -31 -31 0
-222 212 0
-213 -32 32 0
-213 32 -32 0
213 32 32 0
213 -32 -32 0
-222 213 0
-214 -33 33 0
-214 33 -33 0
214 33 33 0
214 -33 -33 0
-222 214 0
-215 -34 34 0
-215 34 -34 0
215 34 34 0
215 -34 -34 0
-222 215 0
-216 -35 35 0
-216 35 -35 0
216 35 35 0
216 -35 -35 0
-222 216 0
-217 -36 36 0
-217 36 -36 0
217 36 36 0
217 -36 -36 0
-222 217 0
-218 -37 37 0
-218 37 -37 0
218 37 37 0
218 -37 -37 0
-222 218 0
-219 -38 38 0
-219 38 -38 0
219 38 38 0
219 -38 -38 0
-222 219 0
-220 -39 39 0
-220 39 -39 0
220 39 39 0
220 -39 -39 0
-222 220 0
-221 -40 40 0
-221 40 -40 0
221 40 40 0
221 -40 -40 0
-222 221 0
-212 -213 -214 -215 -216 -217 -218 -219 -220 -221 222 0
-211 134 222 0
-134 13 0
-13 134 211 0
-223 -41 31 0
-223 41 -31 0
223 41 31 0
223 -41 -31 0
-233 223 0
-224 -42 32 0
-224 42 -32 0
224 42 32 0
224 -42 -32 0
-233 224 0
-225 -43 33 0
-225 43 -33 0
225 43 33 0
225 -43 -33 0
-233 225 0
-226 -44 34 0
-226 44 -34 0
226 44 34 0
226 -44 -34 0
-233 226 0
-227 -45 35 0
-227 45 -35 0
227 45 35 0
227 -45 -35 0
-233 227 0
-228 -46 36 0
-228 46 -36 0
228 46 36 0
228 -46 -36 0
-233 228 0
-229 -47 37 0
-229 47 -37 0
229 47 37 0
229 -47 -37 0
-233 229 0
-230 -48 38 0
-230 48 -38 0
230 48 38 0
230 -48 -38 0
-233 230 0
-231 -49 39 0
-231 49 -39 0
231 49 39 0
231 -49 -39 0
-233 231 0
-232 -50 40 0
-232 50 -40 0
232 50 40 0
232 -50 -40 0
-233 232 0
-223 -224 -225 -226 -227 -228 -229 -230 -231 -232 233 0
-234 -21 21 0
-234 21 -21 0
234 21 21 0
234 -21 -21 0
-244 234 0
-235 -22 22 0
-235 22 -22 0
235 22 22 0
235 -22 -22 0
-244 235 0
-236 -23 23 0
-236 23 -23 0
236 23 23 0
236 -23 -23 0
-244 236 0
-237 -24 24 0
-237 24 -24 0
237 24 24 0
237 -24 -24 0
-244 237 0
-238 -25 25 0
-238 25 -25 0
238 25 25 0
238 -25 -25 0
-244 238 0
-239 -26 26 0
-239 26 -26 0
239 26 26 0
239 -26 -26 0
-244 239 0
-240 -27 27 0
-240 27 -27 0
240 27 27 0
240 -27 -27 0
-244 240 0
-241 -28 28 0
-241 28 -28 0
241 28 28 0
241 -28 -28 0
-244 241 0
-242 -29 29 0
-242 29 -29 0
242 29 29 0
242 -29 -29 0
-244 242 0
-243 -30 30 0
-243 30 -30 0
243 30 30 0
243 -30 -30 0
-244 243 0
-234 -235 -236 -237 -238 -239 -240 -241 -242 -243 244 0
-233 134 244 0
-134 14 0
-14 134 233 0
-245 -41 21 0
-245 41 -21 0
245 41 21 0
245 -41 -21 0
-255 245 0
-246 -42 22 0
-246 42 -22 0
246 42 22 0
246 -42 -22 0
-255 246 0
-247 -43 23 0
-247 43 -23 0
247 43 23 0
247 -43 -23 0
-255 247 0
-248 -44 24 0
-248 44 -24 0
248 44 24 0
248 -44 -24 0
-255 248 0
-249 -45 25 0
-249 45 -25 0
249 45 25 0
249 -45 -25 0
-255 249 0
-250 -46 26 0
-250 46 -26 0
250 46 26 0
250 -46 -26 0
-255 250 0
-251 -47 27 0
-251 47 -27 0
251 47 27 0
251 -47 -27 0
-255 251 0
-252 -48 28 0
-252 48 -28 0
252 48 28 0
252 -48 -28 0
-255 252 0
-253 -49 29 0
-253 49 -29 0
253 49 29 0
253 -49 -29 0
-255 253 0
-254 -50 30 0
-254 50 -30 0
254 50 30 0
254 -50 -30 0
-255 254 0
-245 -246 -247 -248 -249 -250 -251 -252 -253 -254 255 0
-256 -21 21 0
-256 21 -21 0
256 21 21 0
256 -21 -21 0
-266 256 0
-257 -22 22 0
-257 22 -22 0
257 22 22 0
257 -22 -22 0
-266 257 0
-258 -23 23 0
-258 23 -23 0
258 23 23 0
258 -23 -23 0
-266 258 0
-259 -24 24 0
-259 24 -24 0
259 24 24 0
259 -24 -24 0
-266 259 0
-260 -25 25 0
-260 25 -25 0
260 25 25 0
260 -25 -25 0
-266 260 0
-261 -26 26 0
-261 26 -26 0
261 26 26 0
261 -26 -26 0
-266 261 0
-262 -27 27 0
-262 27 -27 0
262 27 27 0
262 -27 -27 0
-266 262 0
-263 -28 28 0
-263 28 -28 0
263 28 28 0
263 -28 -28 0
-266 263 0
-264 -29 29 0
-264 29 -29 0
264 29 29 0
264 -29 -29 0
-266 264 0
-265 -30 30 0
-265 30 -30 0
265 30 30 0
265 -30 -30 0
-266 265 0
-256 -257 -258 -259 -260 -261 -262 -263 -264 -265 266 0
-255 134 266 0
-134 15 0
-15 134 255 0
